data/mockup6.tsp
NAME : mockup5
COMMENT : 6 nodes
TYPE : TSP
DIMENSION : 6
EDGE_WEIGHT_TYPE : ATT
NODE_COORD_SECTION
1 0 1
2 1 1
3 2 0
4 2 2
5 3 1
6 4 1
EOF
