model/mockup6.lp
\ENCODING=ISO-8859-1
\Problem name: mockup6

Minimize
 obj1: 0 x(1,1) + x(1,2) + 2 x(1,3) + 2 x(1,4) + 3 x(1,5) + 4 x(1,6) + x(2,1)
       + 0 x(2,2) + x(2,3) + x(2,4) + 2 x(2,5) + 3 x(2,6) + 2 x(3,1) + x(3,2)
       + 0 x(3,3) + 2 x(3,4) + x(3,5) + 2 x(3,6) + 2 x(4,1) + x(4,2) + 2 x(4,3)
       + 0 x(4,4) + x(4,5) + 2 x(4,6) + 3 x(5,1) + 2 x(5,2) + x(5,3) + x(5,4)
       + 0 x(5,5) + x(5,6) + 4 x(6,1) + 3 x(6,2) + 2 x(6,3) + 2 x(6,4) + x(6,5)
       + 0 x(6,6) + 0 u(1)
Subject To
 degree(1):      x(1,2) + x(1,3) + x(1,4) + x(1,5) + x(1,6)  = 1
 degree(2):      x(2,1) + x(2,3) + x(2,4) + x(2,5) + x(2,6)  = 1
 degree(3):      x(3,1) + x(3,2) + x(3,4) + x(3,5) + x(3,6)  = 1
 degree(4):      x(4,1) + x(4,2) + x(4,3) + x(4,5) + x(4,6)  = 1
 degree(5):      x(5,1) + x(5,2) + x(5,3) + x(5,4) + x(5,6)  = 1
 degree(6):      x(6,1) + x(6,2) + x(6,3) + x(6,4) + x(6,5)  = 1
 degree(7):      x(2,1) + x(3,1) + x(4,1) + x(5,1) + x(6,1)  = 1
 degree(8):      x(1,2) + x(3,2) + x(4,2) + x(5,2) + x(6,2)  = 1
 degree(9):      x(1,3) + x(2,3) + x(4,3) + x(5,3) + x(6,3)  = 1
 degree(10):     x(1,4) + x(2,4) + x(3,4) + x(5,4) + x(6,4)  = 1
 degree(11):     x(1,5) + x(2,5) + x(3,5) + x(4,5) + x(6,5)  = 1
 degree(12):     x(1,6) + x(2,6) + x(3,6) + x(4,6) + x(5,6)  = 1
 constraint(1):  5 x(2,3) + u(2) - u(3) <= 4
 constraint(2):  5 x(2,4) + u(2) - u(4) <= 4
 constraint(3):  5 x(2,5) + u(2) - u(5) <= 4
 constraint(4):  5 x(2,6) + u(2) - u(6) <= 4
 constraint(5):  5 x(3,2) - u(2) + u(3) <= 4
 constraint(6):  5 x(3,4) + u(3) - u(4) <= 4
 constraint(7):  5 x(3,5) + u(3) - u(5) <= 4
 constraint(8):  5 x(3,6) + u(3) - u(6) <= 4
 constraint(9):  5 x(4,2) - u(2) + u(4) <= 4
 constraint(10): 5 x(4,3) - u(3) + u(4) <= 4
 constraint(11): 5 x(4,5) + u(4) - u(5) <= 4
 constraint(12): 5 x(4,6) + u(4) - u(6) <= 4
 constraint(13): 5 x(5,2) - u(2) + u(5) <= 4
 constraint(14): 5 x(5,3) - u(3) + u(5) <= 4
 constraint(15): 5 x(5,4) - u(4) + u(5) <= 4
 constraint(16): 5 x(5,6) + u(5) - u(6) <= 4
 constraint(17): 5 x(6,2) - u(2) + u(6) <= 4
 constraint(18): 5 x(6,3) - u(3) + u(6) <= 4
 constraint(19): 5 x(6,4) - u(4) + u(6) <= 4
 constraint(20): 5 x(6,5) - u(5) + u(6) <= 4
 ben(1):         x(2,3) + x(3,2) <= 1
 ben(2):         x(2,4) + x(4,2) <= 1
 ben(3):         x(2,5) + x(5,2) <= 1
 ben(4):         x(2,6) + x(6,2) <= 1
 ben(5):         x(2,3) + x(3,2) <= 1
 ben(6):         x(3,4) + x(4,3) <= 1
 ben(7):         x(3,5) + x(5,3) <= 1
 ben(8):         x(3,6) + x(6,3) <= 1
 ben(9):         x(2,4) + x(4,2) <= 1
 ben(10):        x(3,4) + x(4,3) <= 1
 ben(11):        x(4,5) + x(5,4) <= 1
 ben(12):        x(4,6) + x(6,4) <= 1
 ben(13):        x(2,5) + x(5,2) <= 1
 ben(14):        x(3,5) + x(5,3) <= 1
 ben(15):        x(4,5) + x(5,4) <= 1
 ben(16):        x(5,6) + x(6,5) <= 1
 ben(17):        x(2,6) + x(6,2) <= 1
 ben(18):        x(3,6) + x(6,3) <= 1
 ben(19):        x(4,6) + x(6,4) <= 1
 ben(20):        x(5,6) + x(6,5) <= 1
Bounds
      x(1,1) = 0
 0 <= x(1,2) <= 1
 0 <= x(1,3) <= 1
 0 <= x(1,4) <= 1
 0 <= x(1,5) <= 1
 0 <= x(1,6) <= 1
 0 <= x(2,1) <= 1
      x(2,2) = 0
 0 <= x(2,3) <= 1
 0 <= x(2,4) <= 1
 0 <= x(2,5) <= 1
 0 <= x(2,6) <= 1
 0 <= x(3,1) <= 1
 0 <= x(3,2) <= 1
      x(3,3) = 0
 0 <= x(3,4) <= 1
 0 <= x(3,5) <= 1
 0 <= x(3,6) <= 1
 0 <= x(4,1) <= 1
 0 <= x(4,2) <= 1
 0 <= x(4,3) <= 1
      x(4,4) = 0
 0 <= x(4,5) <= 1
 0 <= x(4,6) <= 1
 0 <= x(5,1) <= 1
 0 <= x(5,2) <= 1
 0 <= x(5,3) <= 1
 0 <= x(5,4) <= 1
      x(5,5) = 0
 0 <= x(5,6) <= 1
 0 <= x(6,1) <= 1
 0 <= x(6,2) <= 1
 0 <= x(6,3) <= 1
 0 <= x(6,4) <= 1
 0 <= x(6,5) <= 1
      x(6,6) = 0
      u(1) = 0
 0 <= u(2) <= 4
 0 <= u(3) <= 4
 0 <= u(4) <= 4
 0 <= u(5) <= 4
 0 <= u(6) <= 4
Binaries
 x(1,1)  x(1,2)  x(1,3)  x(1,4)  x(1,5)  x(1,6)  x(2,1)  x(2,2)  x(2,3) 
 x(2,4)  x(2,5)  x(2,6)  x(3,1)  x(3,2)  x(3,3)  x(3,4)  x(3,5)  x(3,6) 
 x(4,1)  x(4,2)  x(4,3)  x(4,4)  x(4,5)  x(4,6)  x(5,1)  x(5,2)  x(5,3) 
 x(5,4)  x(5,5)  x(5,6)  x(6,1)  x(6,2)  x(6,3)  x(6,4)  x(6,5)  x(6,6) 
Generals
 u(1)  u(2)  u(3)  u(4)  u(5)  u(6) 
End
